\ LP format - for model browsing. Use MPS format to capture full model detail.
Minimize
  0 x__4 + 0 b_1[0,0] + 0 b_1_2[0,0] + 0 b_1_4[0,0] + 0 b_1_5[0,0]
   + 0 b_6[0,0] + 0 b_6_7[0,0] + 0 b_6_8[0,0] + 0 b_6_9[0,0]
   + 0 b_6_10[0,0] + 0 b_6_12[0,0] + 0 b_6_13[0,0] + 0 b_6_15[0,0]
   + 0 b_6_16[0,0] + 0 b_6_18[0,0] + 0 b_6_20[0,0]
Subject To
 R0: b = 1
 R1: x__0 - 10000 b_1_3[0,0] >= -9995
 R2: x__0 - 10000 b_1_3[0,0] <= 4.9999
 R3: x__1 - 10000 b_1_3[0,1] >= -9995
 R4: x__1 - 10000 b_1_3[0,1] <= 4.9999
 R5: x__2 - 10000 b_1_3[0,2] >= -9995
 R6: x__2 - 10000 b_1_3[0,2] <= 4.9999
 R7: x__3 - 10000 b_1_3[0,3] >= -9995
 R8: x__3 - 10000 b_1_3[0,3] <= 4.9999
 R9: - y__1 - 10000 b_1_5[0,1] >= -10002.9999
 R10: - y__1 - 10000 b_1_5[0,1] <= -3
 R11: - y__2 - 10000 b_1_5[0,2] >= -10002.9999
 R12: - y__2 - 10000 b_1_5[0,2] <= -3
 R13: - y__3 - 10000 b_1_5[0,3] >= -10002.9999
 R14: - y__3 - 10000 b_1_5[0,3] <= -3
 R15: - y__4 - 10000 b_1_5[0,4] >= -10002.9999
 R16: - y__4 - 10000 b_1_5[0,4] <= -3
 R17: - x__0 - 10000 b_6_11[0,0] >= -10004.9999
 R18: - x__0 - 10000 b_6_11[0,0] <= -5
 R19: - x__1 - 10000 b_6_11[0,1] >= -10004.9999
 R20: - x__1 - 10000 b_6_11[0,1] <= -5
 R21: - x__2 - 10000 b_6_11[0,2] >= -10004.9999
 R22: - x__2 - 10000 b_6_11[0,2] <= -5
 R23: - x__3 - 10000 b_6_11[0,3] >= -10004.9999
 R24: - x__3 - 10000 b_6_11[0,3] <= -5
 R25: y__1 - 10000 b_6_13[0,1] >= -9997
 R26: y__1 - 10000 b_6_13[0,1] <= 2.9999
 R27: y__2 - 10000 b_6_13[0,2] >= -9997
 R28: y__2 - 10000 b_6_13[0,2] <= 2.9999
 R29: y__3 - 10000 b_6_13[0,3] >= -9997
 R30: y__3 - 10000 b_6_13[0,3] <= 2.9999
 R31: y__4 - 10000 b_6_13[0,4] >= -9997
 R32: y__4 - 10000 b_6_13[0,4] <= 2.9999
 R33: b_6_14[0,0] = 1
 R34: - x__0 - 10000 b_6_17[0,0] >= -10004.9999
 R35: - x__0 - 10000 b_6_17[0,0] <= -5
 R36: - x__1 - 10000 b_6_17[0,1] >= -10004.9999
 R37: - x__1 - 10000 b_6_17[0,1] <= -5
 R38: - x__2 - 10000 b_6_17[0,2] >= -10004.9999
 R39: - x__2 - 10000 b_6_17[0,2] <= -5
 R40: - x__3 - 10000 b_6_17[0,3] >= -10004.9999
 R41: - x__3 - 10000 b_6_17[0,3] <= -5
 R42: - y__0 - 10000 b_6_19[0,0] >= -10004.9999
 R43: - y__0 - 10000 b_6_19[0,0] <= -5
 R44: - y__1 - 10000 b_6_19[0,1] >= -10004.9999
 R45: - y__1 - 10000 b_6_19[0,1] <= -5
 R46: - y__2 - 10000 b_6_19[0,2] >= -10004.9999
 R47: - y__2 - 10000 b_6_19[0,2] <= -5
 R48: - y__3 - 10000 b_6_19[0,3] >= -10004.9999
 R49: - y__3 - 10000 b_6_19[0,3] <= -5
 R50: - y__4 - 10000 b_6_19[0,4] >= -10004.9999
 R51: - y__4 - 10000 b_6_19[0,4] <= -5
 R52: y__0 - 10000 b_6_21[0,0] >= -9995
 R53: y__0 - 10000 b_6_21[0,0] <= 4.9999
 R54: y__1 - 10000 b_6_21[0,1] >= -9995
 R55: y__1 - 10000 b_6_21[0,1] <= 4.9999
 R56: y__2 - 10000 b_6_21[0,2] >= -9995
 R57: y__2 - 10000 b_6_21[0,2] <= 4.9999
 R58: y__3 - 10000 b_6_21[0,3] >= -9995
 R59: y__3 - 10000 b_6_21[0,3] <= 4.9999
 R60: y__4 - 10000 b_6_21[0,4] >= -9995
 R61: y__4 - 10000 b_6_21[0,4] <= 4.9999
Bounds
 -10000 <= x__0 <= 10000
 -10000 <= x__1 <= 10000
 -10000 <= x__2 <= 10000
 -10000 <= x__3 <= 10000
 -10000 <= x__4 <= 10000
 -10000 <= y__0 <= 10000
 -10000 <= y__1 <= 10000
 -10000 <= y__2 <= 10000
 -10000 <= y__3 <= 10000
 -10000 <= y__4 <= 10000
Binaries
 b b_1[0,0] b_1_2[0,0] b_1_3[0,0] b_1_3[0,1] b_1_3[0,2] b_1_3[0,3]
 b_1_4[0,0] b_1_5[0,0] b_1_5[0,1] b_1_5[0,2] b_1_5[0,3] b_1_5[0,4] b_6[0,0]
 b_6_7[0,0] b_6_8[0,0] b_6_9[0,0] b_6_10[0,0] b_6_11[0,0] b_6_11[0,1]
 b_6_11[0,2] b_6_11[0,3] b_6_12[0,0] b_6_13[0,0] b_6_13[0,1] b_6_13[0,2]
 b_6_13[0,3] b_6_13[0,4] b_6_14[0,0] b_6_15[0,0] b_6_16[0,0] b_6_17[0,0]
 b_6_17[0,1] b_6_17[0,2] b_6_17[0,3] b_6_18[0,0] b_6_19[0,0] b_6_19[0,1]
 b_6_19[0,2] b_6_19[0,3] b_6_19[0,4] b_6_20[0,0] b_6_21[0,0] b_6_21[0,1]
 b_6_21[0,2] b_6_21[0,3] b_6_21[0,4]
General Constraints
 GC0: b_1_2[0,0] = AND ( b_1_3[0,0] , b_1_3[0,1] , b_1_3[0,2] , b_1_3[0,3] )
 GC1: b_1_4[0,0] = OR ( b_1_5[0,1] , b_1_5[0,2] , b_1_5[0,3] , b_1_5[0,4] )
 GC2: b_1[0,0] = AND ( b_1_2[0,0] , b_1_4[0,0] )
 GC3: b_6_10[0,0] = OR ( b_6_11[0,0] , b_6_11[0,1] , b_6_11[0,2] ,
   b_6_11[0,3] )
 GC4: b_6_12[0,0] = AND ( b_6_13[0,1] , b_6_13[0,2] , b_6_13[0,3] ,
   b_6_13[0,4] )
 GC5: b_6_9[0,0] = OR ( b_6_10[0,0] , b_6_12[0,0] )
 GC6: b_6_8[0,0] = AND ( b_6_9[0,0] , b_6_14[0,0] )
 GC7: b_6_16[0,0] = OR ( b_6_17[0,0] , b_6_17[0,1] , b_6_17[0,2] ,
   b_6_17[0,3] )
 GC8: b_6_18[0,0] = OR ( b_6_19[0,0] , b_6_19[0,1] , b_6_19[0,2] ,
   b_6_19[0,3] , b_6_19[0,4] )
 GC9: b_6_15[0,0] = OR ( b_6_16[0,0] , b_6_18[0,0] )
 GC10: b_6_7[0,0] = OR ( b_6_8[0,0] , b_6_15[0,0] )
 GC11: b_6_20[0,0] = AND ( b_6_21[0,0] , b_6_21[0,1] , b_6_21[0,2] ,
   b_6_21[0,3] , b_6_21[0,4] )
 GC12: b_6[0,0] = AND ( b_6_7[0,0] , b_6_20[0,0] )
 GC13: b = AND ( b_1[0,0] , b_6[0,0] )
End
